&control
   prefix = 'bn'
   calculation = 'bands'
   restart_mode = 'from_scratch'
   wf_collect = .false.
   tstress = .true.
   tprnfor = .true.
   verbosity='high'
   outdir = './'
   wfcdir = './'
   pseudo_dir = './'
/
&system
   ibrav = 0
   nat = 2
   ntyp = 2
   ecutwfc = 70.0
   nbnd = 50
/
&electrons
   electron_maxstep = 200
   conv_thr = 1.0d-10
   mixing_mode = 'plain'
   mixing_beta = 0.7
   mixing_ndim = 8
   diagonalization = 'david'
   diago_david_ndim = 4
   diago_full_acc = .true.
/
CELL_PARAMETERS angstrom
   2.504000000   0.000000000   0.000000000
  -1.252000000   2.168527611   0.000000000
   0.000000000   0.000000000   20.000000000
ATOMIC_SPECIES
   B 11.0000 B_LDA.upf
   N 14.0000 N_LDA.upf
ATOMIC_POSITIONS crystal
N        0.333333333   0.666666667   0.500000000
B        0.666666667   0.333333333   0.500000000
K_POINTS crystal
5760
  0.000126259  0.000126259  0.000000000   1.0
  0.000126259  0.041792926  0.000000000   1.0
  0.041792926  0.958459592  0.000000000   1.0
  0.958459592  0.000126259  0.000000000   1.0
  0.000126259  0.083459592  0.000000000   1.0
  0.083459592  0.916792926  0.000000000   1.0
  0.916792926  0.000126259  0.000000000   1.0
  0.000126259  0.125126259  0.000000000   1.0
  0.125126259  0.875126259  0.000000000   1.0
  0.875126259  0.000126259  0.000000000   1.0
  0.000126259  0.166792926  0.000000000   1.0
  0.166792926  0.833459592  0.000000000   1.0
  0.833459592  0.000126259  0.000000000   1.0
  0.000126259  0.208459592  0.000000000   1.0
  0.208459592  0.791792926  0.000000000   1.0
  0.791792926  0.000126259  0.000000000   1.0
  0.000126259  0.250126259  0.000000000   1.0
  0.250126259  0.750126259  0.000000000   1.0
  0.750126259  0.000126259  0.000000000   1.0
  0.000126259  0.291792926  0.000000000   1.0
  0.291792926  0.708459592  0.000000000   1.0
  0.708459592  0.000126259  0.000000000   1.0
  0.000126259  0.333459592  0.000000000   1.0
  0.333459592  0.666792926  0.000000000   1.0
  0.666792926  0.000126259  0.000000000   1.0
  0.000126259  0.375126259  0.000000000   1.0
  0.375126259  0.625126259  0.000000000   1.0
  0.625126259  0.000126259  0.000000000   1.0
  0.000126259  0.416792926  0.000000000   1.0
  0.416792926  0.583459592  0.000000000   1.0
  0.583459592  0.000126259  0.000000000   1.0
  0.000126259  0.458459592  0.000000000   1.0
  0.458459592  0.541792926  0.000000000   1.0
  0.541792926  0.000126259  0.000000000   1.0
  0.000126259  0.500126259  0.000000000   1.0
  0.500126259  0.500126259  0.000000000   1.0
  0.500126259  0.000126259  0.000000000   1.0
  0.000126259  0.541792926  0.000000000   1.0
  0.541792926  0.458459592  0.000000000   1.0
  0.458459592  0.000126259  0.000000000   1.0
  0.000126259  0.583459592  0.000000000   1.0
  0.583459592  0.416792926  0.000000000   1.0
  0.416792926  0.000126259  0.000000000   1.0
  0.000126259  0.625126259  0.000000000   1.0
  0.625126259  0.375126259  0.000000000   1.0
  0.375126259  0.000126259  0.000000000   1.0
  0.000126259  0.666792926  0.000000000   1.0
  0.666792926  0.333459592  0.000000000   1.0
  0.333459592  0.000126259  0.000000000   1.0
  0.000126259  0.708459592  0.000000000   1.0
  0.708459592  0.291792926  0.000000000   1.0
  0.291792926  0.000126259  0.000000000   1.0
  0.000126259  0.750126259  0.000000000   1.0
  0.750126259  0.250126259  0.000000000   1.0
  0.250126259  0.000126259  0.000000000   1.0
  0.000126259  0.791792926  0.000000000   1.0
  0.791792926  0.208459592  0.000000000   1.0
  0.208459592  0.000126259  0.000000000   1.0
  0.000126259  0.833459592  0.000000000   1.0
  0.833459592  0.166792926  0.000000000   1.0
  0.166792926  0.000126259  0.000000000   1.0
  0.000126259  0.875126259  0.000000000   1.0
  0.875126259  0.125126259  0.000000000   1.0
  0.125126259  0.000126259  0.000000000   1.0
  0.000126259  0.916792926  0.000000000   1.0
  0.916792926  0.083459592  0.000000000   1.0
  0.083459592  0.000126259  0.000000000   1.0
  0.000126259  0.958459592  0.000000000   1.0
  0.958459592  0.041792926  0.000000000   1.0
  0.041792926  0.000126259  0.000000000   1.0
  0.041792926  0.041792926  0.000000000   1.0
  0.958459592  0.083459593  0.000000000   1.0
  0.041792926  0.916792925  0.000000000   1.0
  0.916792925  0.041792926  0.000000000   1.0
  0.958459592  0.958459592  0.000000000   1.0
  0.083459593  0.958459592  0.000000000   1.0
  0.041792926  0.083459592  0.000000000   1.0
  0.958459592  0.125126259  0.000000000   1.0
  0.083459592  0.875126259  0.000000000   1.0
  0.875126259  0.041792926  0.000000000   1.0
  0.916792926  0.958459592  0.000000000   1.0
  0.125126259  0.916792926  0.000000000   1.0
  0.041792926  0.125126259  0.000000000   1.0
  0.958459592  0.166792926  0.000000000   1.0
  0.125126259  0.833459592  0.000000000   1.0
  0.833459592  0.041792926  0.000000000   1.0
  0.875126259  0.958459592  0.000000000   1.0
  0.166792926  0.875126259  0.000000000   1.0
  0.041792926  0.166792926  0.000000000   1.0
  0.958459592  0.208459593  0.000000000   1.0
  0.166792926  0.791792925  0.000000000   1.0
  0.791792925  0.041792926  0.000000000   1.0
  0.833459592  0.958459592  0.000000000   1.0
  0.208459593  0.833459592  0.000000000   1.0
  0.041792926  0.208459592  0.000000000   1.0
  0.958459592  0.250126259  0.000000000   1.0
  0.208459592  0.750126259  0.000000000   1.0
  0.750126259  0.041792926  0.000000000   1.0
  0.791792926  0.958459592  0.000000000   1.0
  0.250126259  0.791792926  0.000000000   1.0
  0.041792926  0.250126259  0.000000000   1.0
  0.958459592  0.291792926  0.000000000   1.0
  0.250126259  0.708459592  0.000000000   1.0
  0.708459592  0.041792926  0.000000000   1.0
  0.750126259  0.958459592  0.000000000   1.0
  0.291792926  0.750126259  0.000000000   1.0
  0.041792926  0.291792926  0.000000000   1.0
  0.958459592  0.333459593  0.000000000   1.0
  0.291792926  0.666792925  0.000000000   1.0
  0.666792925  0.041792926  0.000000000   1.0
  0.708459592  0.958459592  0.000000000   1.0
  0.333459593  0.708459592  0.000000000   1.0
  0.041792926  0.333459592  0.000000000   1.0
  0.958459592  0.375126259  0.000000000   1.0
  0.333459592  0.625126259  0.000000000   1.0
  0.625126259  0.041792926  0.000000000   1.0
  0.666792926  0.958459592  0.000000000   1.0
  0.375126259  0.666792926  0.000000000   1.0
  0.041792926  0.375126259  0.000000000   1.0
  0.958459592  0.416792926  0.000000000   1.0
  0.375126259  0.583459592  0.000000000   1.0
  0.583459592  0.041792926  0.000000000   1.0
  0.625126259  0.958459592  0.000000000   1.0
  0.416792926  0.625126259  0.000000000   1.0
  0.041792926  0.416792926  0.000000000   1.0
  0.958459592  0.458459593  0.000000000   1.0
  0.416792926  0.541792925  0.000000000   1.0
  0.541792925  0.041792926  0.000000000   1.0
  0.583459592  0.958459592  0.000000000   1.0
  0.458459593  0.583459592  0.000000000   1.0
  0.041792926  0.458459592  0.000000000   1.0
  0.958459592  0.500126259  0.000000000   1.0
  0.458459592  0.500126259  0.000000000   1.0
  0.500126259  0.041792926  0.000000000   1.0
  0.541792926  0.958459592  0.000000000   1.0
  0.500126259  0.541792926  0.000000000   1.0
  0.041792926  0.500126259  0.000000000   1.0
  0.958459592  0.541792926  0.000000000   1.0
  0.500126259  0.458459592  0.000000000   1.0
  0.458459592  0.041792926  0.000000000   1.0
  0.500126259  0.958459592  0.000000000   1.0
  0.541792926  0.500126259  0.000000000   1.0
  0.041792926  0.541792926  0.000000000   1.0
  0.958459592  0.583459593  0.000000000   1.0
  0.541792926  0.416792925  0.000000000   1.0
  0.416792925  0.041792926  0.000000000   1.0
  0.458459592  0.958459592  0.000000000   1.0
  0.583459593  0.458459592  0.000000000   1.0
  0.041792926  0.583459592  0.000000000   1.0
  0.958459592  0.625126259  0.000000000   1.0
  0.583459592  0.375126259  0.000000000   1.0
  0.375126259  0.041792926  0.000000000   1.0
  0.416792926  0.958459592  0.000000000   1.0
  0.625126259  0.416792926  0.000000000   1.0
  0.041792926  0.625126259  0.000000000   1.0
  0.958459592  0.666792926  0.000000000   1.0
  0.625126259  0.333459592  0.000000000   1.0
  0.333459592  0.041792926  0.000000000   1.0
  0.375126259  0.958459592  0.000000000   1.0
  0.666792926  0.375126259  0.000000000   1.0
  0.041792926  0.666792926  0.000000000   1.0
  0.958459592  0.708459593  0.000000000   1.0
  0.666792926  0.291792925  0.000000000   1.0
  0.291792925  0.041792926  0.000000000   1.0
  0.333459592  0.958459592  0.000000000   1.0
  0.708459593  0.333459592  0.000000000   1.0
  0.041792926  0.708459592  0.000000000   1.0
  0.958459592  0.750126259  0.000000000   1.0
  0.708459592  0.250126259  0.000000000   1.0
  0.250126259  0.041792926  0.000000000   1.0
  0.291792926  0.958459592  0.000000000   1.0
  0.750126259  0.291792926  0.000000000   1.0
  0.041792926  0.750126259  0.000000000   1.0
  0.958459592  0.791792926  0.000000000   1.0
  0.750126259  0.208459592  0.000000000   1.0
  0.208459592  0.041792926  0.000000000   1.0
  0.250126259  0.958459592  0.000000000   1.0
  0.791792926  0.250126259  0.000000000   1.0
  0.041792926  0.791792926  0.000000000   1.0
  0.958459592  0.833459593  0.000000000   1.0
  0.791792926  0.166792925  0.000000000   1.0
  0.166792925  0.041792926  0.000000000   1.0
  0.208459592  0.958459592  0.000000000   1.0
  0.833459593  0.208459592  0.000000000   1.0
  0.041792926  0.833459592  0.000000000   1.0
  0.958459592  0.875126259  0.000000000   1.0
  0.833459592  0.125126259  0.000000000   1.0
  0.125126259  0.041792926  0.000000000   1.0
  0.166792926  0.958459592  0.000000000   1.0
  0.875126259  0.166792926  0.000000000   1.0
  0.041792926  0.875126259  0.000000000   1.0
  0.958459592  0.916792926  0.000000000   1.0
  0.875126259  0.083459592  0.000000000   1.0
  0.083459592  0.041792926  0.000000000   1.0
  0.125126259  0.958459592  0.000000000   1.0
  0.916792926  0.125126259  0.000000000   1.0
  0.083459592  0.083459592  0.000000000   1.0
  0.916792926  0.166792925  0.000000000   1.0
  0.083459592  0.833459593  0.000000000   1.0
  0.833459593  0.083459592  0.000000000   1.0
  0.916792926  0.916792926  0.000000000   1.0
  0.166792925  0.916792926  0.000000000   1.0
  0.083459592  0.125126259  0.000000000   1.0
  0.916792926  0.208459592  0.000000000   1.0
  0.125126259  0.791792926  0.000000000   1.0
  0.791792926  0.083459592  0.000000000   1.0
  0.875126259  0.916792926  0.000000000   1.0
  0.208459592  0.875126259  0.000000000   1.0
  0.083459592  0.166792926  0.000000000   1.0
  0.916792926  0.250126259  0.000000000   1.0
  0.166792926  0.750126259  0.000000000   1.0
  0.750126259  0.083459592  0.000000000   1.0
  0.833459592  0.916792926  0.000000000   1.0
  0.250126259  0.833459592  0.000000000   1.0
  0.083459592  0.208459592  0.000000000   1.0
  0.916792926  0.291792925  0.000000000   1.0
  0.208459592  0.708459593  0.000000000   1.0
  0.708459593  0.083459592  0.000000000   1.0
  0.791792926  0.916792926  0.000000000   1.0
  0.291792925  0.791792926  0.000000000   1.0
  0.083459592  0.250126259  0.000000000   1.0
  0.916792926  0.333459592  0.000000000   1.0
  0.250126259  0.666792926  0.000000000   1.0
  0.666792926  0.083459592  0.000000000   1.0
  0.750126259  0.916792926  0.000000000   1.0
  0.333459592  0.750126259  0.000000000   1.0
  0.083459592  0.291792926  0.000000000   1.0
  0.916792926  0.375126259  0.000000000   1.0
  0.291792926  0.625126259  0.000000000   1.0
  0.625126259  0.083459592  0.000000000   1.0
  0.708459592  0.916792926  0.000000000   1.0
  0.375126259  0.708459592  0.000000000   1.0
  0.083459592  0.333459592  0.000000000   1.0
  0.916792926  0.416792925  0.000000000   1.0
  0.333459592  0.583459593  0.000000000   1.0
  0.583459593  0.083459592  0.000000000   1.0
  0.666792926  0.916792926  0.000000000   1.0
  0.416792925  0.666792926  0.000000000   1.0
  0.083459592  0.375126259  0.000000000   1.0
  0.916792926  0.458459592  0.000000000   1.0
  0.375126259  0.541792926  0.000000000   1.0
  0.541792926  0.083459592  0.000000000   1.0
  0.625126259  0.916792926  0.000000000   1.0
  0.458459592  0.625126259  0.000000000   1.0
  0.083459592  0.416792926  0.000000000   1.0
  0.916792926  0.500126259  0.000000000   1.0
  0.416792926  0.500126259  0.000000000   1.0
  0.500126259  0.083459592  0.000000000   1.0
  0.583459592  0.916792926  0.000000000   1.0
  0.500126259  0.583459592  0.000000000   1.0
  0.083459592  0.458459592  0.000000000   1.0
  0.916792926  0.541792925  0.000000000   1.0
  0.458459592  0.458459593  0.000000000   1.0
  0.458459593  0.083459592  0.000000000   1.0
  0.541792926  0.916792926  0.000000000   1.0
  0.541792925  0.541792926  0.000000000   1.0
  0.083459592  0.500126259  0.000000000   1.0
  0.916792926  0.583459592  0.000000000   1.0
  0.500126259  0.416792926  0.000000000   1.0
  0.416792926  0.083459592  0.000000000   1.0
  0.500126259  0.916792926  0.000000000   1.0
  0.583459592  0.500126259  0.000000000   1.0
  0.083459592  0.541792926  0.000000000   1.0
  0.916792926  0.625126259  0.000000000   1.0
  0.541792926  0.375126259  0.000000000   1.0
  0.375126259  0.083459592  0.000000000   1.0
  0.458459592  0.916792926  0.000000000   1.0
  0.625126259  0.458459592  0.000000000   1.0
  0.083459592  0.583459592  0.000000000   1.0
  0.916792926  0.666792925  0.000000000   1.0
  0.583459592  0.333459593  0.000000000   1.0
  0.333459593  0.083459592  0.000000000   1.0
  0.416792926  0.916792926  0.000000000   1.0
  0.666792925  0.416792926  0.000000000   1.0
  0.083459592  0.625126259  0.000000000   1.0
  0.916792926  0.708459592  0.000000000   1.0
  0.625126259  0.291792926  0.000000000   1.0
  0.291792926  0.083459592  0.000000000   1.0
  0.375126259  0.916792926  0.000000000   1.0
  0.708459592  0.375126259  0.000000000   1.0
  0.083459592  0.666792926  0.000000000   1.0
  0.916792926  0.750126259  0.000000000   1.0
  0.666792926  0.250126259  0.000000000   1.0
  0.250126259  0.083459592  0.000000000   1.0
  0.333459592  0.916792926  0.000000000   1.0
  0.750126259  0.333459592  0.000000000   1.0
  0.083459592  0.708459592  0.000000000   1.0
  0.916792926  0.791792925  0.000000000   1.0
  0.708459592  0.208459593  0.000000000   1.0
  0.208459593  0.083459592  0.000000000   1.0
  0.291792926  0.916792926  0.000000000   1.0
  0.791792925  0.291792926  0.000000000   1.0
  0.083459592  0.750126259  0.000000000   1.0
  0.916792926  0.833459592  0.000000000   1.0
  0.750126259  0.166792926  0.000000000   1.0
  0.166792926  0.083459592  0.000000000   1.0
  0.250126259  0.916792926  0.000000000   1.0
  0.833459592  0.250126259  0.000000000   1.0
  0.083459592  0.791792926  0.000000000   1.0
  0.916792926  0.875126259  0.000000000   1.0
  0.791792926  0.125126259  0.000000000   1.0
  0.125126259  0.083459592  0.000000000   1.0
  0.208459592  0.916792926  0.000000000   1.0
  0.875126259  0.208459592  0.000000000   1.0
  0.125126259  0.125126259  0.000000000   1.0
  0.875126259  0.250126259  0.000000000   1.0
  0.125126259  0.750126259  0.000000000   1.0
  0.750126259  0.125126259  0.000000000   1.0
  0.875126259  0.875126259  0.000000000   1.0
  0.250126259  0.875126259  0.000000000   1.0
  0.125126259  0.166792926  0.000000000   1.0
  0.875126259  0.291792926  0.000000000   1.0
  0.166792926  0.708459592  0.000000000   1.0
  0.708459592  0.125126259  0.000000000   1.0
  0.833459592  0.875126259  0.000000000   1.0
  0.291792926  0.833459592  0.000000000   1.0
  0.125126259  0.208459592  0.000000000   1.0
  0.875126259  0.333459592  0.000000000   1.0
  0.208459592  0.666792926  0.000000000   1.0
  0.666792926  0.125126259  0.000000000   1.0
  0.791792926  0.875126259  0.000000000   1.0
  0.333459592  0.791792926  0.000000000   1.0
  0.125126259  0.250126259  0.000000000   1.0
  0.875126259  0.375126259  0.000000000   1.0
  0.250126259  0.625126259  0.000000000   1.0
  0.625126259  0.125126259  0.000000000   1.0
  0.750126259  0.875126259  0.000000000   1.0
  0.375126259  0.750126259  0.000000000   1.0
  0.125126259  0.291792926  0.000000000   1.0
  0.875126259  0.416792926  0.000000000   1.0
  0.291792926  0.583459592  0.000000000   1.0
  0.583459592  0.125126259  0.000000000   1.0
  0.708459592  0.875126259  0.000000000   1.0
  0.416792926  0.708459592  0.000000000   1.0
  0.125126259  0.333459592  0.000000000   1.0
  0.875126259  0.458459592  0.000000000   1.0
  0.333459592  0.541792926  0.000000000   1.0
  0.541792926  0.125126259  0.000000000   1.0
  0.666792926  0.875126259  0.000000000   1.0
  0.458459592  0.666792926  0.000000000   1.0
  0.125126259  0.375126259  0.000000000   1.0
  0.875126259  0.500126259  0.000000000   1.0
  0.375126259  0.500126259  0.000000000   1.0
  0.500126259  0.125126259  0.000000000   1.0
  0.625126259  0.875126259  0.000000000   1.0
  0.500126259  0.625126259  0.000000000   1.0
  0.125126259  0.416792926  0.000000000   1.0
  0.875126259  0.541792926  0.000000000   1.0
  0.416792926  0.458459592  0.000000000   1.0
  0.458459592  0.125126259  0.000000000   1.0
  0.583459592  0.875126259  0.000000000   1.0
  0.541792926  0.583459592  0.000000000   1.0
  0.125126259  0.458459592  0.000000000   1.0
  0.875126259  0.583459592  0.000000000   1.0
  0.458459592  0.416792926  0.000000000   1.0
  0.416792926  0.125126259  0.000000000   1.0
  0.541792926  0.875126259  0.000000000   1.0
  0.583459592  0.541792926  0.000000000   1.0
  0.125126259  0.500126259  0.000000000   1.0
  0.875126259  0.625126259  0.000000000   1.0
  0.500126259  0.375126259  0.000000000   1.0
  0.375126259  0.125126259  0.000000000   1.0
  0.500126259  0.875126259  0.000000000   1.0
  0.625126259  0.500126259  0.000000000   1.0
  0.125126259  0.541792926  0.000000000   1.0
  0.875126259  0.666792926  0.000000000   1.0
  0.541792926  0.333459592  0.000000000   1.0
  0.333459592  0.125126259  0.000000000   1.0
  0.458459592  0.875126259  0.000000000   1.0
  0.666792926  0.458459592  0.000000000   1.0
  0.125126259  0.583459592  0.000000000   1.0
  0.875126259  0.708459592  0.000000000   1.0
  0.583459592  0.291792926  0.000000000   1.0
  0.291792926  0.125126259  0.000000000   1.0
  0.416792926  0.875126259  0.000000000   1.0
  0.708459592  0.416792926  0.000000000   1.0
  0.125126259  0.625126259  0.000000000   1.0
  0.875126259  0.750126259  0.000000000   1.0
  0.625126259  0.250126259  0.000000000   1.0
  0.250126259  0.125126259  0.000000000   1.0
  0.375126259  0.875126259  0.000000000   1.0
  0.750126259  0.375126259  0.000000000   1.0
  0.125126259  0.666792926  0.000000000   1.0
  0.875126259  0.791792926  0.000000000   1.0
  0.666792926  0.208459592  0.000000000   1.0
  0.208459592  0.125126259  0.000000000   1.0
  0.333459592  0.875126259  0.000000000   1.0
  0.791792926  0.333459592  0.000000000   1.0
  0.125126259  0.708459592  0.000000000   1.0
  0.875126259  0.833459592  0.000000000   1.0
  0.708459592  0.166792926  0.000000000   1.0
  0.166792926  0.125126259  0.000000000   1.0
  0.291792926  0.875126259  0.000000000   1.0
  0.833459592  0.291792926  0.000000000   1.0
  0.166792926  0.166792926  0.000000000   1.0
  0.833459592  0.333459593  0.000000000   1.0
  0.166792926  0.666792925  0.000000000   1.0
  0.666792925  0.166792926  0.000000000   1.0
  0.833459592  0.833459592  0.000000000   1.0
  0.333459593  0.833459592  0.000000000   1.0
  0.166792926  0.208459592  0.000000000   1.0
  0.833459592  0.375126259  0.000000000   1.0
  0.208459592  0.625126259  0.000000000   1.0
  0.625126259  0.166792926  0.000000000   1.0
  0.791792926  0.833459592  0.000000000   1.0
  0.375126259  0.791792926  0.000000000   1.0
  0.166792926  0.250126259  0.000000000   1.0
  0.833459592  0.416792926  0.000000000   1.0
  0.250126259  0.583459592  0.000000000   1.0
  0.583459592  0.166792926  0.000000000   1.0
  0.750126259  0.833459592  0.000000000   1.0
  0.416792926  0.750126259  0.000000000   1.0
  0.166792926  0.291792926  0.000000000   1.0
  0.833459592  0.458459593  0.000000000   1.0
  0.291792926  0.541792925  0.000000000   1.0
  0.541792925  0.166792926  0.000000000   1.0
  0.708459592  0.833459592  0.000000000   1.0
  0.458459593  0.708459592  0.000000000   1.0
  0.166792926  0.333459592  0.000000000   1.0
  0.833459592  0.500126259  0.000000000   1.0
  0.333459592  0.500126259  0.000000000   1.0
  0.500126259  0.166792926  0.000000000   1.0
  0.666792926  0.833459592  0.000000000   1.0
  0.500126259  0.666792926  0.000000000   1.0
  0.166792926  0.375126259  0.000000000   1.0
  0.833459592  0.541792926  0.000000000   1.0
  0.375126259  0.458459592  0.000000000   1.0
  0.458459592  0.166792926  0.000000000   1.0
  0.625126259  0.833459592  0.000000000   1.0
  0.541792926  0.625126259  0.000000000   1.0
  0.166792926  0.416792926  0.000000000   1.0
  0.833459592  0.583459593  0.000000000   1.0
  0.416792926  0.416792925  0.000000000   1.0
  0.416792925  0.166792926  0.000000000   1.0
  0.583459592  0.833459592  0.000000000   1.0
  0.583459593  0.583459592  0.000000000   1.0
  0.166792926  0.458459592  0.000000000   1.0
  0.833459592  0.625126259  0.000000000   1.0
  0.458459592  0.375126259  0.000000000   1.0
  0.375126259  0.166792926  0.000000000   1.0
  0.541792926  0.833459592  0.000000000   1.0
  0.625126259  0.541792926  0.000000000   1.0
  0.166792926  0.500126259  0.000000000   1.0
  0.833459592  0.666792926  0.000000000   1.0
  0.500126259  0.333459592  0.000000000   1.0
  0.333459592  0.166792926  0.000000000   1.0
  0.500126259  0.833459592  0.000000000   1.0
  0.666792926  0.500126259  0.000000000   1.0
  0.166792926  0.541792926  0.000000000   1.0
  0.833459592  0.708459593  0.000000000   1.0
  0.541792926  0.291792925  0.000000000   1.0
  0.291792925  0.166792926  0.000000000   1.0
  0.458459592  0.833459592  0.000000000   1.0
  0.708459593  0.458459592  0.000000000   1.0
  0.166792926  0.583459592  0.000000000   1.0
  0.833459592  0.750126259  0.000000000   1.0
  0.583459592  0.250126259  0.000000000   1.0
  0.250126259  0.166792926  0.000000000   1.0
  0.416792926  0.833459592  0.000000000   1.0
  0.750126259  0.416792926  0.000000000   1.0
  0.166792926  0.625126259  0.000000000   1.0
  0.833459592  0.791792926  0.000000000   1.0
  0.625126259  0.208459592  0.000000000   1.0
  0.208459592  0.166792926  0.000000000   1.0
  0.375126259  0.833459592  0.000000000   1.0
  0.791792926  0.375126259  0.000000000   1.0
  0.208459592  0.208459592  0.000000000   1.0
  0.791792926  0.416792925  0.000000000   1.0
  0.208459592  0.583459593  0.000000000   1.0
  0.583459593  0.208459592  0.000000000   1.0
  0.791792926  0.791792926  0.000000000   1.0
  0.416792925  0.791792926  0.000000000   1.0
  0.208459592  0.250126259  0.000000000   1.0
  0.791792926  0.458459592  0.000000000   1.0
  0.250126259  0.541792926  0.000000000   1.0
  0.541792926  0.208459592  0.000000000   1.0
  0.750126259  0.791792926  0.000000000   1.0
  0.458459592  0.750126259  0.000000000   1.0
  0.208459592  0.291792926  0.000000000   1.0
  0.791792926  0.500126259  0.000000000   1.0
  0.291792926  0.500126259  0.000000000   1.0
  0.500126259  0.208459592  0.000000000   1.0
  0.708459592  0.791792926  0.000000000   1.0
  0.500126259  0.708459592  0.000000000   1.0
  0.208459592  0.333459592  0.000000000   1.0
  0.791792926  0.541792925  0.000000000   1.0
  0.333459592  0.458459593  0.000000000   1.0
  0.458459593  0.208459592  0.000000000   1.0
  0.666792926  0.791792926  0.000000000   1.0
  0.541792925  0.666792926  0.000000000   1.0
  0.208459592  0.375126259  0.000000000   1.0
  0.791792926  0.583459592  0.000000000   1.0
  0.375126259  0.416792926  0.000000000   1.0
  0.416792926  0.208459592  0.000000000   1.0
  0.625126259  0.791792926  0.000000000   1.0
  0.583459592  0.625126259  0.000000000   1.0
  0.208459592  0.416792926  0.000000000   1.0
  0.791792926  0.625126259  0.000000000   1.0
  0.416792926  0.375126259  0.000000000   1.0
  0.375126259  0.208459592  0.000000000   1.0
  0.583459592  0.791792926  0.000000000   1.0
  0.625126259  0.583459592  0.000000000   1.0
  0.208459592  0.458459592  0.000000000   1.0
  0.791792926  0.666792925  0.000000000   1.0
  0.458459592  0.333459593  0.000000000   1.0
  0.333459593  0.208459592  0.000000000   1.0
  0.541792926  0.791792926  0.000000000   1.0
  0.666792925  0.541792926  0.000000000   1.0
  0.208459592  0.500126259  0.000000000   1.0
  0.791792926  0.708459592  0.000000000   1.0
  0.500126259  0.291792926  0.000000000   1.0
  0.291792926  0.208459592  0.000000000   1.0
  0.500126259  0.791792926  0.000000000   1.0
  0.708459592  0.500126259  0.000000000   1.0
  0.208459592  0.541792926  0.000000000   1.0
  0.791792926  0.750126259  0.000000000   1.0
  0.541792926  0.250126259  0.000000000   1.0
  0.250126259  0.208459592  0.000000000   1.0
  0.458459592  0.791792926  0.000000000   1.0
  0.750126259  0.458459592  0.000000000   1.0
  0.250126259  0.250126259  0.000000000   1.0
  0.750126259  0.500126259  0.000000000   1.0
  0.250126259  0.500126259  0.000000000   1.0
  0.500126259  0.250126259  0.000000000   1.0
  0.750126259  0.750126259  0.000000000   1.0
  0.500126259  0.750126259  0.000000000   1.0
  0.250126259  0.291792926  0.000000000   1.0
  0.750126259  0.541792926  0.000000000   1.0
  0.291792926  0.458459592  0.000000000   1.0
  0.458459592  0.250126259  0.000000000   1.0
  0.708459592  0.750126259  0.000000000   1.0
  0.541792926  0.708459592  0.000000000   1.0
  0.250126259  0.333459592  0.000000000   1.0
  0.750126259  0.583459592  0.000000000   1.0
  0.333459592  0.416792926  0.000000000   1.0
  0.416792926  0.250126259  0.000000000   1.0
  0.666792926  0.750126259  0.000000000   1.0
  0.583459592  0.666792926  0.000000000   1.0
  0.250126259  0.375126259  0.000000000   1.0
  0.750126259  0.625126259  0.000000000   1.0
  0.375126259  0.375126259  0.000000000   1.0
  0.375126259  0.250126259  0.000000000   1.0
  0.625126259  0.750126259  0.000000000   1.0
  0.625126259  0.625126259  0.000000000   1.0
  0.250126259  0.416792926  0.000000000   1.0
  0.750126259  0.666792926  0.000000000   1.0
  0.416792926  0.333459592  0.000000000   1.0
  0.333459592  0.250126259  0.000000000   1.0
  0.583459592  0.750126259  0.000000000   1.0
  0.666792926  0.583459592  0.000000000   1.0
  0.250126259  0.458459592  0.000000000   1.0
  0.750126259  0.708459592  0.000000000   1.0
  0.458459592  0.291792926  0.000000000   1.0
  0.291792926  0.250126259  0.000000000   1.0
  0.541792926  0.750126259  0.000000000   1.0
  0.708459592  0.541792926  0.000000000   1.0
  0.291792926  0.291792926  0.000000000   1.0
  0.708459592  0.583459593  0.000000000   1.0
  0.291792926  0.416792925  0.000000000   1.0
  0.416792925  0.291792926  0.000000000   1.0
  0.708459592  0.708459592  0.000000000   1.0
  0.583459593  0.708459592  0.000000000   1.0
  0.291792926  0.333459592  0.000000000   1.0
  0.708459592  0.625126259  0.000000000   1.0
  0.333459592  0.375126259  0.000000000   1.0
  0.375126259  0.291792926  0.000000000   1.0
  0.666792926  0.708459592  0.000000000   1.0
  0.625126259  0.666792926  0.000000000   1.0
  0.291792926  0.375126259  0.000000000   1.0
  0.708459592  0.666792926  0.000000000   1.0
  0.375126259  0.333459592  0.000000000   1.0
  0.333459592  0.291792926  0.000000000   1.0
  0.625126259  0.708459592  0.000000000   1.0
  0.666792926  0.625126259  0.000000000   1.0
  0.333459592  0.333459592  0.000000000   1.0
  0.666792926  0.666792925  0.000000000   1.0
  0.000505035  0.000505035  0.000000000   1.0
  0.000505035  0.042171702  0.000000000   1.0
  0.042171702  0.958838368  0.000000000   1.0
  0.958838368  0.000505035  0.000000000   1.0
  0.000505035  0.083838368  0.000000000   1.0
  0.083838368  0.917171702  0.000000000   1.0
  0.917171702  0.000505035  0.000000000   1.0
  0.000505035  0.125505035  0.000000000   1.0
  0.125505035  0.875505035  0.000000000   1.0
  0.875505035  0.000505035  0.000000000   1.0
  0.000505035  0.167171702  0.000000000   1.0
  0.167171702  0.833838368  0.000000000   1.0
  0.833838368  0.000505035  0.000000000   1.0
  0.000505035  0.208838368  0.000000000   1.0
  0.208838368  0.792171702  0.000000000   1.0
  0.792171702  0.000505035  0.000000000   1.0
  0.000505035  0.250505035  0.000000000   1.0
  0.250505035  0.750505035  0.000000000   1.0
  0.750505035  0.000505035  0.000000000   1.0
  0.000505035  0.292171702  0.000000000   1.0
  0.292171702  0.708838368  0.000000000   1.0
  0.708838368  0.000505035  0.000000000   1.0
  0.000505035  0.333838368  0.000000000   1.0
  0.333838368  0.667171702  0.000000000   1.0
  0.667171702  0.000505035  0.000000000   1.0
  0.000505035  0.375505035  0.000000000   1.0
  0.375505035  0.625505035  0.000000000   1.0
  0.625505035  0.000505035  0.000000000   1.0
  0.000505035  0.417171702  0.000000000   1.0
  0.417171702  0.583838368  0.000000000   1.0
  0.583838368  0.000505035  0.000000000   1.0
  0.000505035  0.458838368  0.000000000   1.0
  0.458838368  0.542171702  0.000000000   1.0
  0.542171702  0.000505035  0.000000000   1.0
  0.000505035  0.500505035  0.000000000   1.0
  0.500505035  0.500505035  0.000000000   1.0
  0.500505035  0.000505035  0.000000000   1.0
  0.000505035  0.542171702  0.000000000   1.0
  0.542171702  0.458838368  0.000000000   1.0
  0.458838368  0.000505035  0.000000000   1.0
  0.000505035  0.583838368  0.000000000   1.0
  0.583838368  0.417171702  0.000000000   1.0
  0.417171702  0.000505035  0.000000000   1.0
  0.000505035  0.625505035  0.000000000   1.0
  0.625505035  0.375505035  0.000000000   1.0
  0.375505035  0.000505035  0.000000000   1.0
  0.000505035  0.667171702  0.000000000   1.0
  0.667171702  0.333838368  0.000000000   1.0
  0.333838368  0.000505035  0.000000000   1.0
  0.000505035  0.708838368  0.000000000   1.0
  0.708838368  0.292171702  0.000000000   1.0
  0.292171702  0.000505035  0.000000000   1.0
  0.000505035  0.750505035  0.000000000   1.0
  0.750505035  0.250505035  0.000000000   1.0
  0.250505035  0.000505035  0.000000000   1.0
  0.000505035  0.792171702  0.000000000   1.0
  0.792171702  0.208838368  0.000000000   1.0