&BANDS
  prefix = 'bn'
  outdir = './'
  filband = 'bn_bands.dat'
/
