&control
   prefix = 'bn'
   calculation = 'scf'
   restart_mode = 'from_scratch'
   wf_collect = .false.
   tstress = .true.
   tprnfor = .true.
   verbosity='high'
   outdir = './'
   wfcdir = './'
   pseudo_dir = './'
/
&system
   ibrav = 0
   nat = 2
   ntyp = 2
   ecutwfc = 70.0
/
&electrons
   electron_maxstep = 200
   conv_thr = 1.0d-10
   mixing_mode = 'plain'
   mixing_beta = 0.7
   mixing_ndim = 8
   diagonalization = 'david'
   diago_david_ndim = 4
   diago_full_acc = .true.
/
CELL_PARAMETERS angstrom
   2.504000000   0.000000000   0.000000000
  -1.252000000   2.168527611   0.000000000
   0.000000000   0.000000000   20.000000000
ATOMIC_SPECIES
   B 11.0000 B_LDA.upf
   N 14.0000 N_LDA.upf

ATOMIC_POSITIONS crystal
N        0.333333333   0.666666667   0.500000000
B        0.666666667   0.333333333   0.500000000

K_POINTS automatic
24 24 1 1 1 0

